p cnf 91 377
3 19 23 -50 51 68 -91 0
10 20 21 -69 -72 88 0
3 19 23 -50 51 -91 0
1 42 45 60 83 0
2 -32 56 59 -62 0
-5 -6 65 74 82 0
7 9 40 45 46 0
11 12 26 -27 -31 0
11 12 -30 -31 57 0
12 57 -73 -78 79 0
13 49 67 85 91 0
19 23 -33 -65 -76 0
22 41 -53 71 -72 0
10 21 70 -72 88 0
13 -31 57 58 -78 0
29 -30 57 58 -73 0
1 -42 60 83 0
2 3 59 -62 0
2 24 -32 56 0
-3 4 16 -68 0
-3 -16 67 68 0
-3 -16 67 91 0
4 78 -79 84 0
-4 -61 -78 84 0
7 9 -43 45 0
8 9 40 55 0
-8 -40 45 -60 0
-8 42 45 46 0
-8 -42 46 83 0
-10 27 28 57 0
11 -27 34 57 0
13 49 67 85 0
-13 -49 90 -91 0
-13 68 90 -91 0
-14 -19 -31 79 0
-14 -73 78 -79 0
-15 29 57 58 0
-16 -19 -51 -85 0
17 44 -71 77 0
-17 22 -44 -72 0
-19 26 -28 31 0
-19 51 -81 -85 0
20 -38 53 -70 0
21 23 39 60 0
-24 26 28 -33 0
25 29 30 33 0
25 74 75 76 0
29 -30 -36 -37 0
-31 58 -76 80 0
-35 37 62 -63 0
-38 -54 71 72 0
50 66 86 -89 0
52 -63 78 82 0
-66 -86 -89 90 0
3 23 -51 -68 0
-3 -23 67 91 0
-3 51 67 68 0
4 19 23 -51 0
-5 -6 -65 82 0
7 42 46 -87 0
11 57 -76 -80 0
-12 13 -78 -79 0
-16 -51 68 -85 0
-18 -23 -40 -60 0
19 21 23 39 0
19 23 32 59 0
19 23 -74 -75 0
-19 -68 -85 -86 0
22 -41 -44 -72 0
-22 41 -53 70 0
25 27 28 59 0
29 -36 -37 63 0
58 -73 78 79 0
-69 70 83 88 0
1 3 59 0
1 24 -32 0
-1 -2 -5 0
-1 8 -10 0
-1 8 -70 0
-1 -24 -59 0
-1 30 31 0
-1 -83 -88 0
-2 -5 35 0
-2 -6 61 0
-2 35 61 0
3 16 50 0
3 -51 -68 0
3 -67 -86 0
-3 4 85 0
4 23 -36 0
4 33 -50 0
4 -50 89 0
4 -56 61 0
-4 -19 -84 0
5 -78 -84 0
-5 35 52 0
-6 -24 36 0
7 -47 64 0
7 55 64 0
-7 -8 -42 0
-7 -8 -46 0
8 9 55 0
8 40 60 0
8 -46 64 0
-8 -10 -83 0
-8 -38 -39 0
-8 -45 48 0
-8 70 -88 0
-8 -83 87 0
10 11 -28 0
10 -27 -57 0
10 -31 78 0
11 76 80 0
-11 -58 80 0
12 -28 34 0
13 67 89 0
-13 -67 86 0
14 58 -79 0
15 -29 30 0
15 -31 57 0
-16 -50 91 0
17 23 40 0
17 -44 -71 0
-17 -18 -19 0
18 21 69 0
-18 -19 -38 0
-18 -39 -48 0
-18 -47 -64 0
19 39 64 0
19 74 -75 0
19 -76 -80 0
-19 -27 -34 0
-19 30 36 0
-19 -41 -48 0
-19 -51 -89 0
20 41 -77 0
-21 -72 -77 0
22 -55 77 0
-22 -41 53 0
23 -30 -33 0
23 -36 37 0
23 56 59 0
-23 -24 -28 0
-23 25 -32 0
-23 30 57 0
-23 36 79 0
-23 -41 -53 0
-23 -48 -84 0
-23 57 -79 0
-24 -35 62 0
25 29 33 0
25 32 34 0
25 56 -59 0
-25 -27 -32 0
-26 28 31 0
27 34 -57 0
29 -78 80 0
-30 -36 73 0
-32 -35 59 0
-32 -35 61 0
-32 -61 -62 0
35 36 37 0
-35 -52 -61 0
-35 -61 -74 0
36 -37 -63 0
38 54 -81 0
-38 47 -64 0
-38 54 72 0
39 45 48 0
-39 -43 46 0
40 45 48 0
-45 -48 55 0
46 47 -64 0
46 48 -55 0
-46 -47 64 0
-46 -47 -64 0
49 -68 91 0
50 -66 89 0
51 -81 -85 0
52 62 -84 0
53 -54 71 0
-54 -72 81 0
-56 61 62 0
-61 82 84 0
66 67 -90 0
-68 -85 -91 0
69 -70 88 0
70 77 -88 0
-74 -75 76 0
46 60 83 -87 0
1 3 0
1 7 0
1 -7 0
1 10 0
1 27 0
1 59 0
1 -83 0
-1 -3 0
-1 24 0
-1 26 0
-1 32 0
-1 -36 0
-1 83 0
-1 -83 0
2 3 0
2 5 0
2 6 0
2 24 0
2 -61 0
2 62 0
-2 -6 0
-2 84 0
3 -51 0
3 -62 0
3 -91 0
-3 -16 0
-3 40 0
-3 44 0
-3 -47 0
-3 -66 0
-3 -68 0
-3 -86 0
4 -36 0
4 -51 0
4 -52 0
4 -56 0
4 61 0
4 -82 0
4 -84 0
4 -91 0
-4 -5 0
-4 -61 0
-4 78 0
5 -52 0
5 63 0
5 78 0
5 -82 0
-5 52 0
-5 84 0
6 10 0
6 35 0
6 -37 0
6 -62 0
6 -82 0
-6 52 0
-6 61 0
7 -12 0
7 55 0
-7 -19 0
-7 -23 0
-7 -60 0
-7 87 0
-7 -88 0
8 9 0
8 -46 0
8 64 0
8 -88 0
8 90 0
-8 -9 0
-8 10 0
-8 -64 0
-8 70 0
-8 71 0
-8 83 0
-8 -83 0
9 -43 0
9 -47 0
9 -48 0
-9 -40 0
-9 43 0
-9 -46 0
10 22 0
10 -70 0
10 81 0
-10 -11 0
-10 -12 0
-10 15 0
-10 -34 0
-10 37 0
-10 59 0
11 -12 0
11 14 0
11 15 0
11 -65 0
11 -73 0
-11 31 0
-11 -57 0
-11 76 0
12 -33 0
12 78 0
-12 -13 0
-12 31 0
-12 -57 0
-12 -70 0
-12 73 0
-12 79 0
13 78 0
13 -84 0
13 -90 0
13 91 0
-13 47 0
-13 -50 0
-13 -76 0
-13 -86 0
14 31 0
14 -57 0
14 -58 0
14 -70 0
14 73 0
14 -78 0
-14 -19 0
-14 73 0
-14 76 0
-14 -76 0
-14 -78 0
15 25 0
15 31 0
15 -57 0
15 -58 0
-15 -31 0
-15 76 0
-15 80 0
16 49 0
-16 67 0
-16 -89 0
17 18 0
17 22 0
-17 -22 0
-17 77 0
18 41 0
18 54 0
18 64 0
-18 -54 0
-18 -77 0
-18 -86 0
19 21 0
19 28 0
19 -33 0
19 41 0
19 -51 0
19 54 0
19 69 0
19 75 0
19 -80 0
19 85 0
-19 -26 0
-19 -31 0
-19 34 0
-19 -37 0
-19 -40 0
-19 43 0
-19 46 0
-19 -53 0
-19 -56 0
-19 -59 0
-19 -69 0
-19 -73 0
-19 81 0
-19 84 0
-19 85 0
-19 89 0
20 -41 0
20 71 0
-20 -21 0
-20 -22 0
-20 -53 0
-20 69 0
-20 72 0
-20 77 0
21 22 0
21 60 0
21 -88 0
-21 88 0
-21 -88 0
22 39 0
22 -77 0
-22 -72 0
